(set-logic QF_S)
(declare-fun var0 () String)
(assert (str.in.re var0 (re.++ (re.union (re.+ (str.to.re "00")) (re.+ (str.to.re "11"))) (re.++ (re.+ (re.+ (str.to.re "22"))) (re.++ (re.+ (re.+ (str.to.re "3"))) (re.++ (re.+ (re.union (str.to.re "4") (str.to.re "5"))) (re.++ (re.union (re.union (str.to.re "666") (str.to.re "7")) (re.union (str.to.re "8") (str.to.re "999"))) (re.++ (re.+ (re.+ (str.to.re "a"))) (re.++ (re.* (re.* (str.to.re "b"))) (re.++ (re.* (re.union (str.to.re "ccc") (str.to.re "d"))) (re.++ (re.+ (re.+ (str.to.re "ee"))) (re.++ (re.* (re.union (str.to.re "f") (str.to.re "g"))) (re.++ (re.* (re.union (str.to.re "h") (str.to.re "iii"))) (re.++ (re.* (re.+ (str.to.re "jj"))) (re.++ (re.* (re.union (str.to.re "kk") (str.to.re "lll"))) (re.++ (re.+ (re.+ (str.to.re "mm"))) (re.++ (re.+ (re.union (str.to.re "nn") (str.to.re "o"))) (re.++ (re.union (re.+ (str.to.re "ppp")) (re.+ (str.to.re "q"))) (re.++ (re.+ (re.* (str.to.re "rr"))) (re.++ (re.+ (re.union (str.to.re "s") (str.to.re "ttt"))) (re.++ (re.* (re.* (str.to.re "u"))) (re.++ (re.+ (re.* (str.to.re "vvv"))) (re.++ (re.+ (re.* (str.to.re "ww"))) (re.++ (re.union (re.* (str.to.re "xx")) (re.* (str.to.re "yyy"))) (re.++ (re.* (re.union (str.to.re "zz") (str.to.re "A"))) (re.++ (re.* (re.* (str.to.re "BB"))) (re.++ (re.+ (re.union (str.to.re "CC") (str.to.re "D"))) (re.++ (re.union (re.* (str.to.re "EE")) (re.* (str.to.re "FFF"))) (re.++ (re.union (re.+ (str.to.re "GGG")) (re.+ (str.to.re "HH"))) (re.++ (re.+ (re.+ (str.to.re "III"))) (re.++ (re.* (re.union (str.to.re "JJ") (str.to.re "KKK"))) (re.++ (re.+ (re.union (str.to.re "LL") (str.to.re "M"))) (re.++ (re.+ (re.union (str.to.re "NNN") (str.to.re "O"))) (re.++ (re.union (re.union (str.to.re "P") (str.to.re "Q")) (re.union (str.to.re "RRR") (str.to.re "SS"))) (re.++ (re.+ (re.union (str.to.re "TTT") (str.to.re "UU"))) (re.++ (re.+ (re.* (str.to.re "V"))) (re.++ (re.* (re.union (str.to.re "WW") (str.to.re "X"))) (re.++ (re.+ (re.+ (str.to.re "YYY"))) (re.++ (re.+ (re.+ (str.to.re "ZZZ"))) (re.++ (re.* (re.union (str.to.re "!!!") (str.to.re """"""""))) (re.++ (re.+ (re.+ (str.to.re "#"))) (re.++ (re.* (re.* (str.to.re "$$"))) (re.++ (re.union (re.+ (str.to.re "%")) (re.+ (str.to.re "&&"))) (re.++ (re.union (re.* (str.to.re "''")) (re.* (str.to.re "("))) (re.++ (re.+ (re.union (str.to.re ")))") (str.to.re "*"))) (re.++ (re.union (re.+ (str.to.re "+++")) (re.+ (str.to.re ",,"))) (re.++ (re.* (re.* (str.to.re "-"))) (re.++ (re.union (re.+ (str.to.re ".")) (re.+ (str.to.re "///"))) (re.++ (re.* (re.union (str.to.re ":::") (str.to.re ";;;"))) (re.++ (re.+ (re.union (str.to.re "<<") (str.to.re "=="))) (re.++ (re.+ (re.union (str.to.re ">") (str.to.re "???"))) (re.++ (re.union (re.+ (str.to.re "@")) (re.+ (str.to.re "[[["))) (re.+ (re.* (str.to.re "\\\\\\")))))))))))))))))))))))))))))))))))))))))))))))))))))))
(assert (not (str.in.re var0 (re.++ (re.union (re.* (str.to.re "00")) (re.* (str.to.re "1"))) (re.++ (re.+ (re.* (str.to.re "222"))) (re.++ (re.* (re.* (str.to.re "333"))) (re.++ (re.union (re.+ (str.to.re "44")) (re.+ (str.to.re "55"))) (re.++ (re.union (re.union (str.to.re "66") (str.to.re "777")) (re.union (str.to.re "88") (str.to.re "9"))) (re.++ (re.* (re.* (str.to.re "a"))) (re.++ (re.* (re.+ (str.to.re "bbb"))) (re.++ (re.* (re.+ (str.to.re "cc"))) (re.++ (re.union (re.* (str.to.re "dd")) (re.* (str.to.re "eee"))) (re.++ (re.union (re.* (str.to.re "f")) (re.* (str.to.re "ggg"))) (re.++ (re.* (re.+ (str.to.re "h"))) (re.++ (re.+ (re.+ (str.to.re "ii"))) (re.++ (re.* (re.union (str.to.re "jjj") (str.to.re "k"))) (re.++ (re.union (re.union (str.to.re "lll") (str.to.re "mm")) (re.union (str.to.re "nn") (str.to.re "o"))) (re.++ (re.* (re.* (str.to.re "pp"))) (re.++ (re.* (re.* (str.to.re "q"))) (re.++ (re.+ (re.+ (str.to.re "rrr"))) (re.++ (re.union (re.* (str.to.re "s")) (re.* (str.to.re "tt"))) (re.++ (re.union (re.union (str.to.re "u") (str.to.re "v")) (re.union (str.to.re "ww") (str.to.re "xxx"))) (re.++ (re.union (re.+ (str.to.re "yy")) (re.+ (str.to.re "zz"))) (re.++ (re.union (re.* (str.to.re "A")) (re.* (str.to.re "BBB"))) (re.++ (re.* (re.* (str.to.re "CC"))) (re.++ (re.* (re.union (str.to.re "DDD") (str.to.re "EEE"))) (re.++ (re.* (re.+ (str.to.re "FFF"))) (re.++ (re.+ (re.+ (str.to.re "GGG"))) (re.++ (re.+ (re.* (str.to.re "H"))) (re.++ (re.union (re.* (str.to.re "III")) (re.* (str.to.re "JJJ"))) (re.++ (re.union (re.union (str.to.re "KK") (str.to.re "L")) (re.union (str.to.re "M") (str.to.re "NN"))) (re.++ (re.* (re.* (str.to.re "O"))) (re.++ (re.* (re.* (str.to.re "PPP"))) (re.++ (re.union (re.+ (str.to.re "QQ")) (re.+ (str.to.re "R"))) (re.++ (re.+ (re.+ (str.to.re "SS"))) (re.++ (re.+ (re.* (str.to.re "T"))) (re.++ (re.union (re.* (str.to.re "UUU")) (re.* (str.to.re "VVV"))) (re.++ (re.* (re.+ (str.to.re "WWW"))) (re.++ (re.* (re.+ (str.to.re "XX"))) (re.++ (re.+ (re.* (str.to.re "YY"))) (re.++ (re.* (re.union (str.to.re "ZZ") (str.to.re "!"))) (re.++ (re.union (re.union (str.to.re """""") (str.to.re "#")) (re.union (str.to.re "$") (str.to.re "%%%"))) (re.++ (re.* (re.+ (str.to.re "&&&"))) (re.++ (re.+ (re.+ (str.to.re "'''"))) (re.++ (re.* (re.union (str.to.re "(((") (str.to.re "))"))) (re.++ (re.+ (re.* (str.to.re "**"))) (re.++ (re.+ (re.union (str.to.re "++") (str.to.re ",,,"))) (re.++ (re.union (re.* (str.to.re "--")) (re.* (str.to.re "..."))) (re.++ (re.* (re.* (str.to.re "/"))) (re.++ (re.+ (re.* (str.to.re ":::"))) (re.++ (re.* (re.+ (str.to.re ";"))) (re.++ (re.+ (re.union (str.to.re "<") (str.to.re "="))) (re.++ (re.+ (re.* (str.to.re ">>"))) (re.* (re.* (str.to.re "?"))))))))))))))))))))))))))))))))))))))))))))))))))))))))
(check-sat)